RT is False
Default write of storage_offers_DA.csv just to have a file (but constraint should be inactive)
Reading model...
...model read.
creating competitive generators file...
...competitive generators recorded.
Loading data...
.. day-ahead data with real-time VRE data read.
Compiling instance...
...instance created.
Creating Offer Mitigation (model will solve as dispatch if TRUE)...
Solving...

Welcome to IBM(R) ILOG(R) CPLEX(R) Interactive Optimizer 12.8.0.0
  with Simplex, Mixed Integer & Barrier Optimizers
5725-A06 5725-A29 5724-Y48 5724-Y49 5724-Y54 5724-Y55 5655-Y21
Copyright IBM Corp. 1988, 2017.  All Rights Reserved.

Type 'help' for a list of available commands.
Type 'help' followed by a command name for more
information on commands.

CPLEX> Logfile 'cplex.log' closed.
Logfile 'C:\Users\llavi\Desktop\test919\logs\tmpfzq2ceoe.cplex.log' open.
CPLEX> New value for parallel optimization mode: -1
CPLEX> New value for mixed integer optimality gap tolerance: 0.01
CPLEX> New value for integrality tolerance: 1e-09
CPLEX> New value for feasibility tolerance: 0.01
CPLEX> New value for deterministic time limit in ticks: 75000
CPLEX> Problem 'C:\Users\llavi\Desktop\test919\logs\tmp79ca3q3m.pyomo.lp' read.
Read time = 0.08 sec. (3.03 ticks)
CPLEX> Problem name         : C:\Users\llavi\Desktop\test919\logs\tmp79ca3q3m.pyomo.lp
Objective sense      : Minimize
Variables            :   26465  [Nneg: 1,  Box: 22000,  Free: 4464]
Objective nonzeros   :    2496
Linear constraints   :   27515  [Less: 14006,  Greater: 4416,  Equal: 9093]
  Nonzeros           :   89171
  RHS nonzeros       :   12267

Variables            : Min LB: -5000.000        Max UB: 1000000.       
Objective nonzeros   : Min   : 15.73158         Max   : 124.0997       
Linear constraints   :
  Nonzeros           : Min   : 0.8500000        Max   : 3000.000       
  RHS nonzeros       : Min   : 0.05833333       Max   : 5000.000       
CPLEX> CPXPARAM_Simplex_Tolerances_Feasibility          0.01
CPXPARAM_Parallel                                -1
CPXPARAM_DetTimeLimit                            75000
CPXPARAM_MIP_Tolerances_MIPGap                   0.01
CPXPARAM_MIP_Tolerances_Integrality              1.0000000000000001e-09
Parallel mode: opportunistic, using up to 4 threads for concurrent optimization.
Tried aggregator 1 time.
LP Presolve eliminated 21401 rows and 15892 columns.
Aggregator did 726 substitutions.
Reduced LP has 5388 rows, 9847 columns, and 31752 nonzeros.
Presolve time = 0.03 sec. (22.47 ticks)

Iteration log . . .
Iteration:     1   Dual objective     =             0.000000
Perturbation started.
Iteration:   101   Dual objective     =             0.000000
Iteration:   356   Dual objective     =             1.415109
Iteration:   637   Dual objective     =             2.034045
Iteration:   940   Dual objective     =             2.179089
Iteration:  1135   Dual objective     =             2.293345
Iteration:  1485   Dual objective     =             2.360266
Iteration:  1788   Dual objective     =             2.391351
Iteration:  2081   Dual objective     =             2.414111
Iteration:  2378   Dual objective     =             2.427367
Iteration:  2675   Dual objective     =             2.438518
Iteration:  3027   Dual objective     =             2.452167
Iteration:  3444   Dual objective     =             2.459023
Iteration:  3789   Dual objective     =         21268.024935
Iteration:  4160   Dual objective     =         26415.638981
Removing perturbation.

Dual simplex solved model.


Dual simplex - Optimal:  Objective =  2.8091733084e+04
Solution time =    0.17 sec.  Iterations = 4491 (0)
Deterministic time = 95.51 ticks  (555.29 ticks/sec)

CPLEX> Solution written to file 'C:\Users\llavi\Desktop\test919\logs\tmpghi2w4au.cplex.sol'.
CPLEX> Exporting results... 
...storage offer mitigation file created
Converting model to MPEC...
...converted
NOTE: initial MIP solve with only storage competitive to get feasible solution
Solving...

Welcome to IBM(R) ILOG(R) CPLEX(R) Interactive Optimizer 12.8.0.0
  with Simplex, Mixed Integer & Barrier Optimizers
5725-A06 5725-A29 5724-Y48 5724-Y49 5724-Y54 5724-Y55 5655-Y21
Copyright IBM Corp. 1988, 2017.  All Rights Reserved.

Type 'help' for a list of available commands.
Type 'help' followed by a command name for more
information on commands.

CPLEX> Logfile 'cplex.log' closed.
Logfile 'C:\Users\llavi\Desktop\test919\logs\tmpb7q6ilc7.cplex.log' open.
CPLEX> New value for parallel optimization mode: -1
CPLEX> New value for mixed integer optimality gap tolerance: 0.01
CPLEX> New value for integrality tolerance: 1e-09
CPLEX> New value for feasibility tolerance: 0.01
CPLEX> New value for deterministic time limit in ticks: 75000
CPLEX> Problem 'C:\Users\llavi\Desktop\test919\logs\tmp5ksmi5ld.pyomo.lp' read.
Read time = 0.27 sec. (13.96 ticks)
CPLEX> Problem name         : C:\Users\llavi\Desktop\test919\logs\tmp5ksmi5ld.pyomo.lp
Objective sense      : Maximize
Variables            :   53805  [Nneg: 1,  Box: 22000,  Free: 4464,
                                 Binary: 27340]
Objective nonzeros   :    9074
Linear constraints   :  123205  [Less: 41346,  Greater: 59096,  Equal: 22763]
  Nonzeros           :  291701
  RHS nonzeros       :   67411

Variables            : Min LB: -5000.000        Max UB: 1000000.       
Objective nonzeros   : Min   : 0.05833333       Max   : 2500.000       
Linear constraints   :
  Nonzeros           : Min   : 0.05833333       Max   : 1000000.       
  RHS nonzeros       : Min   : 0.05833333       Max   : 1000000.       
CPLEX> CPXPARAM_Simplex_Tolerances_Feasibility          0.01
CPXPARAM_Parallel                                -1
CPXPARAM_DetTimeLimit                            75000
CPXPARAM_MIP_Tolerances_MIPGap                   0.01
CPXPARAM_MIP_Tolerances_Integrality              1.0000000000000001e-09
Tried aggregator 3 times.
MIP Presolve eliminated 88722 rows and 19069 columns.
MIP Presolve added 3345 rows and 0 columns.
MIP Presolve modified 23854 coefficients.
Aggregator did 12956 substitutions.
Reduced MIP has 24872 rows, 21223 columns, and 70932 nonzeros.
Reduced MIP has 8399 binaries, 0 generals, 0 SOSs, and 0 indicators.
Presolve time = 0.28 sec. (165.34 ticks)
Probing fixed 380 vars, tightened 2884 bounds.
Probing time = 3.16 sec. (895.09 ticks)
Tried aggregator 2 times.
MIP Presolve eliminated 860 rows and 763 columns.
MIP Presolve modified 2231 coefficients.
Aggregator did 40 substitutions.
Reduced MIP has 23972 rows, 20420 columns, and 68314 nonzeros.
Reduced MIP has 8019 binaries, 0 generals, 0 SOSs, and 0 indicators.
Presolve time = 0.16 sec. (55.67 ticks)
Probing time = 0.06 sec. (14.95 ticks)
Clique table members: 6451.
MIP emphasis: balance optimality and feasibility.
MIP search method: dynamic search.
Parallel mode: opportunistic, using up to 4 threads.
Root relaxation solution time = 0.45 sec. (417.49 ticks)

        Nodes                                         Cuts/
   Node  Left     Objective  IInf  Best Integer    Best Bound    ItCnt     Gap

      0     0        0.0000   640                      0.0000     2656         
*     0+    0                            0.0000        0.0000             0.00%
      0     0        cutoff              0.0000        0.0000     2656    0.00%
Elapsed time = 7.52 sec. (2598.96 ticks, tree = 0.01 MB, solutions = 1)

Root node processing (before b&c):
  Real time             =    7.53 sec. (2601.23 ticks)
Parallel b&c, 4 threads:
  Real time             =    0.00 sec. (0.00 ticks)
  Sync time (average)   =    0.00 sec.
  Wait time (average)   =    0.00 sec.
                          ------------
Total (root+branch&cut) =    7.53 sec. (2601.23 ticks)

Solution pool: 1 solution saved.

MIP - Integer optimal solution:  Objective =  6.5483618528e-10
Solution time =    7.53 sec.  Iterations = 2656  Nodes = 0
Deterministic time = 2601.38 ticks  (345.42 ticks/sec)

CPLEX> Incumbent solution written to file 'C:\Users\llavi\Desktop\test919\logs\tmpbtuu54v9.cplex.sol'.
CPLEX> NOTE: no warmstart specified for MIP iteration, default behavior is true
NOTE: resolving with all competitive generators using storage-only solution to warmstart
Solving...

Welcome to IBM(R) ILOG(R) CPLEX(R) Interactive Optimizer 12.8.0.0
  with Simplex, Mixed Integer & Barrier Optimizers
5725-A06 5725-A29 5724-Y48 5724-Y49 5724-Y54 5724-Y55 5655-Y21
Copyright IBM Corp. 1988, 2017.  All Rights Reserved.

Type 'help' for a list of available commands.
Type 'help' followed by a command name for more
information on commands.

CPLEX> Logfile 'cplex.log' closed.
Logfile 'C:\Users\llavi\Desktop\test919\logs\tmpppq2308l.cplex.log' open.
CPLEX> New value for parallel optimization mode: -1
CPLEX> New value for mixed integer optimality gap tolerance: 0.01
CPLEX> New value for integrality tolerance: 1e-09
CPLEX> New value for feasibility tolerance: 0.01
CPLEX> New value for deterministic time limit in ticks: 75000
CPLEX> Problem 'C:\Users\llavi\Desktop\test919\logs\tmpe5vbp_5z.pyomo.lp' read.
Read time = 0.27 sec. (13.98 ticks)
CPLEX> MIP start file 'C:\Users\llavi\Desktop\test919\logs\tmpeyt_0qzt.cplex.mst' read.
CPLEX> Problem name         : C:\Users\llavi\Desktop\test919\logs\tmpe5vbp_5z.pyomo.lp
Objective sense      : Maximize
Variables            :   54525  [Nneg: 1,  Box: 22720,  Free: 4464,
                                 Binary: 27340]
Objective nonzeros   :    9770
Linear constraints   :  123205  [Less: 41346,  Greater: 59096,  Equal: 22763]
  Nonzeros           :  291701
  RHS nonzeros       :   67411

Variables            : Min LB: -5000.000        Max UB: 1000000.       
Objective nonzeros   : Min   : 0.05833333       Max   : 2500.000       
Linear constraints   :
  Nonzeros           : Min   : 0.05833333       Max   : 1000000.       
  RHS nonzeros       : Min   : 0.05833333       Max   : 1000000.       
CPLEX> CPXPARAM_Simplex_Tolerances_Feasibility          0.01
CPXPARAM_Parallel                                -1
CPXPARAM_DetTimeLimit                            75000
CPXPARAM_MIP_Tolerances_MIPGap                   0.01
CPXPARAM_MIP_Tolerances_Integrality              1.0000000000000001e-09
Warning:  No solution found from 1 MIP starts.
Retaining values of one MIP start for possible repair.
Tried aggregator 3 times.
MIP Presolve eliminated 88722 rows and 19789 columns.
MIP Presolve added 3345 rows and 0 columns.
MIP Presolve modified 23854 coefficients.
Aggregator did 12956 substitutions.
Reduced MIP has 24872 rows, 21223 columns, and 70932 nonzeros.
Reduced MIP has 8399 binaries, 0 generals, 0 SOSs, and 0 indicators.
Presolve time = 0.22 sec. (165.70 ticks)
Probing fixed 380 vars, tightened 2884 bounds.
Probing time = 3.08 sec. (895.09 ticks)
Tried aggregator 2 times.
MIP Presolve eliminated 860 rows and 763 columns.
MIP Presolve modified 2231 coefficients.
Aggregator did 40 substitutions.
Reduced MIP has 23972 rows, 20420 columns, and 68314 nonzeros.
Reduced MIP has 8019 binaries, 0 generals, 0 SOSs, and 0 indicators.
Presolve time = 0.09 sec. (55.70 ticks)
Probing time = 0.05 sec. (14.95 ticks)
Clique table members: 6451.
MIP emphasis: balance optimality and feasibility.
MIP search method: dynamic search.
Parallel mode: opportunistic, using up to 4 threads.
Root relaxation solution time = 0.47 sec. (475.83 ticks)

        Nodes                                         Cuts/
   Node  Left     Objective  IInf  Best Integer    Best Bound    ItCnt     Gap

      0     0   118668.9397   753                 118668.9397     2621         
      0     0   116092.1680    95                   Cuts: 153     2719         
      0     0   114779.5565    98                    Cuts: 58     2765         
      0     0   114508.8188   103                    Cuts: 33     2775         
      0     0   114508.8188   106                    Cuts: 30     2783         
      0     0   114508.8188   106                    Cuts: 27     2784         
Repair heuristic found nothing.
      0     2   114508.8188   106                 114508.8188     2784         
Elapsed time = 32.55 sec. (12557.12 ticks, tree = 0.03 MB, solutions = 0)
     83    35    93068.8478    64                 113302.2938     3793         
    195    67    91687.2178    55                 113302.2938     4999         
    324   104    68292.3622    72                 113302.2938     7336         
    393   137    25165.4506    31                 113302.2938     8014         
    472   173    -6608.0825     9                 113302.2938     9582         
    564   233   -10952.7793     8                 113302.2938    10309         
    632   284    10028.1063    44                 113302.2938    10598         
    675   313     9944.9166    35                 113302.2938    10674         
    711   326   -10952.7793     6                 113302.2938    10776         
    807   347    21037.6985    66                 113302.2938    12046         
Elapsed time = 36.78 sec. (15674.62 ticks, tree = 2.58 MB, solutions = 0)
   1005   385    13576.8428    49                 113302.2938    13770         
   1128   470    infeasible                       113302.2938    14475         
   1213   495    infeasible                       113302.2938    14788         
   1370   567    36001.6634    55                 113302.2938    17745         
   1505   550   -10952.7793     6                 113302.2938    16988         
   1601   753    infeasible                       113302.2938    19770         
   1719   813  -187701.4066    20                 113302.2938    21022         
   1892   867    10939.0255    21                 113302.2938    22302         
   2005   878    10773.7828    33                 113302.2938    22339         
   2105  1065  -261578.0407    77                 113302.2938    26557         
Elapsed time = 49.16 sec. (25289.30 ticks, tree = 9.95 MB, solutions = 0)
   2206   906   -13032.0611     5                 113302.2938    23558         
   2251  1144    -7723.5073    10                 113302.2938    28075         
   2282  1147    -8139.9314     8                 113302.2938    28106         
*  2289  1140      integral     0   -14945.7912   113302.2938    28085  858.09%
   2388  1129    -8913.8440    27   -14945.7912   113302.2938    29162  858.09%
   2483  1182   -11364.0411    27   -14945.7912   113302.2938    30531  858.09%
   2585  1252   -14267.7486    11   -14945.7912   113302.2938    31628  858.09%
   2621  1252        cutoff         -14945.7912   113302.2938    31639  858.09%
   2721  1317        cutoff         -14945.7912   113302.2938    32174  858.09%
   2837  1376    11057.4209    11   -14945.7912   113302.2938    32901  858.09%
Elapsed time = 62.44 sec. (34295.32 ticks, tree = 12.46 MB, solutions = 1)
   2871  1381        cutoff         -14945.7912   113302.2938    32951  858.09%
   2895  1138    -8139.9314     8   -14945.7912   113302.2938    29866  858.09%
   2922  1384        cutoff         -14945.7912   113302.2938    32993  858.09%
   2943  1437     9854.4177     9   -14945.7912   113302.2938    33651  858.09%
   2991  1309     4146.4448    44   -14945.7912   113302.2938    32580  858.09%
   3076  1349        cutoff         -14945.7912   113302.2938    32709  858.09%
   3105  1349        cutoff         -14945.7912   113302.2938    32720  858.09%
   3127  1437     9854.4177     9   -14945.7912   113302.2938    33665  858.09%
   3150  1438     -765.2882     8   -14945.7912   113302.2938    33674  858.09%
   3172  1438     9854.4177     9   -14945.7912   113302.2938    33722  858.09%
Elapsed time = 74.52 sec. (44403.70 ticks, tree = 13.05 MB, solutions = 1)
   3195  1439    -8139.9314     8   -14945.7912   113302.2938    33691  858.09%
   3279  1484     5379.7028    27   -14945.7912   113302.2938    34455  858.09%
   3389  1438     9854.4177     9   -14945.7912   113302.2938    33731  858.09%
   3483  1444        cutoff         -14945.7912   113302.2938    34122  858.09%
   3490  1445   -10952.7793     6   -14945.7912   113302.2938    34119  858.09%
   3500  1445   -10952.7793     6   -14945.7912   113302.2938    34125  858.09%
   3510  1445     -765.2882     8   -14945.7912   113302.2938    34134  858.09%
   3514  1630    11855.6829    52   -14945.7912     5657.2452    43335  137.85%
   3771    38        cutoff         -14945.7912     5657.2452    43650  137.85%
   3933   240       -0.2323    16   -14945.7912     5657.2452    46105  137.85%
Elapsed time = 96.67 sec. (59411.96 ticks, tree = 1.28 MB, solutions = 1)
   4011   277        cutoff         -14945.7912     5657.2452    46868  137.85%
   4043   325        cutoff         -14945.7912     5657.2452    47424  137.85%
   4070   309        cutoff         -14945.7912     5657.2452    46909  137.85%
   4082   350        cutoff         -14945.7912     5657.2452    47761  137.85%
   4100   346        cutoff         -14945.7912     5657.2452    47454  137.85%
   4117   355     -826.2068     4   -14945.7912     5657.2452    48013  137.85%
   4129   364        cutoff         -14945.7912     5657.2452    48678  137.85%
   4142   365     -826.2068     1   -14945.7912     5657.2452    48612  137.85%
   4156   368        cutoff         -14945.7912     5657.2452    48868  137.85%
   4169   365     -826.2068     1   -14945.7912     5657.2452    48615  137.85%
Elapsed time = 108.42 sec. (70035.51 ticks, tree = 2.38 MB, solutions = 1)
   4182   372        cutoff         -14945.7912     5657.2452    48903  137.85%
   4188   372        cutoff         -14945.7912     5657.2452    48904  137.85%
   4204   374        cutoff         -14945.7912     5657.2452    48913  137.85%
   4217   377        cutoff         -14945.7912     5657.2452    48917  137.85%

Clique cuts applied:  1
Cover cuts applied:  9
Implied bound cuts applied:  1
Flow cuts applied:  204
Mixed integer rounding cuts applied:  16
Gomory fractional cuts applied:  42

Root node processing (before b&c):
  Real time             =   32.31 sec. (12515.95 ticks)
Parallel b&c, 4 threads:
  Real time             =   79.33 sec. (62922.65 ticks)
  Sync time (average)   =    0.38 sec.
  Wait time (average)   =    0.01 sec.
                          ------------
Total (root+branch&cut) =  111.64 sec. (75438.60 ticks)

Solution pool: 1 solution saved.

MIP - Deterministic time limit exceeded, integer feasible:  Objective = -1.4945791158e+04
Current MIP best bound =  5.6572452172e+03 (gap = 20603, 137.85%)
Solution time =  111.64 sec.  Iterations = 49750  Nodes = 4223 (389)
Deterministic time = 75438.76 ticks  (675.73 ticks/sec)

CPLEX> Incumbent solution written to file 'C:\Users\llavi\Desktop\test919\logs\tmpev95dcg5.cplex.sol'.
CPLEX> Exporting results... 
